c File: flat150_3_0.col
c
c SOURCE: Joseph Culberson (joe@cs.ualberta.ca)
c DESCRIPTION: Quasi-random coloring problem
c              generated with flatness = 0
c                             probability = 0.048
c                             known coloring = 3
c                             random seed = 1025
c              Creation Date:  Wed Feb 24 10:37:21 1999
c Maximum degree = 8 Minimum degree = 1
c COLOR VERIFICATION: Using the permuted order
c under simple greedy yields the specified
c coloring number
c Color = 3 specified partitions = 3
c p edge 150 360
c cnf created by edge2cnf
p cnf 450 1680
-1 -2 0
-1 -3 0
-2 -3 0
1 2 3 0
-4 -5 0
-4 -6 0
-5 -6 0
4 5 6 0
-7 -8 0
-7 -9 0
-8 -9 0
7 8 9 0
-10 -11 0
-10 -12 0
-11 -12 0
10 11 12 0
-13 -14 0
-13 -15 0
-14 -15 0
13 14 15 0
-16 -17 0
-16 -18 0
-17 -18 0
16 17 18 0
-19 -20 0
-19 -21 0
-20 -21 0
19 20 21 0
-22 -23 0
-22 -24 0
-23 -24 0
22 23 24 0
-25 -26 0
-25 -27 0
-26 -27 0
25 26 27 0
-28 -29 0
-28 -30 0
-29 -30 0
28 29 30 0
-31 -32 0
-31 -33 0
-32 -33 0
31 32 33 0
-34 -35 0
-34 -36 0
-35 -36 0
34 35 36 0
-37 -38 0
-37 -39 0
-38 -39 0
37 38 39 0
-40 -41 0
-40 -42 0
-41 -42 0
40 41 42 0
-43 -44 0
-43 -45 0
-44 -45 0
43 44 45 0
-46 -47 0
-46 -48 0
-47 -48 0
46 47 48 0
-49 -50 0
-49 -51 0
-50 -51 0
49 50 51 0
-52 -53 0
-52 -54 0
-53 -54 0
52 53 54 0
-55 -56 0
-55 -57 0
-56 -57 0
55 56 57 0
-58 -59 0
-58 -60 0
-59 -60 0
58 59 60 0
-61 -62 0
-61 -63 0
-62 -63 0
61 62 63 0
-64 -65 0
-64 -66 0
-65 -66 0
64 65 66 0
-67 -68 0
-67 -69 0
-68 -69 0
67 68 69 0
-70 -71 0
-70 -72 0
-71 -72 0
70 71 72 0
-73 -74 0
-73 -75 0
-74 -75 0
73 74 75 0
-76 -77 0
-76 -78 0
-77 -78 0
76 77 78 0
-79 -80 0
-79 -81 0
-80 -81 0
79 80 81 0
-82 -83 0
-82 -84 0
-83 -84 0
82 83 84 0
-85 -86 0
-85 -87 0
-86 -87 0
85 86 87 0
-88 -89 0
-88 -90 0
-89 -90 0
88 89 90 0
-91 -92 0
-91 -93 0
-92 -93 0
91 92 93 0
-94 -95 0
-94 -96 0
-95 -96 0
94 95 96 0
-97 -98 0
-97 -99 0
-98 -99 0
97 98 99 0
-100 -101 0
-100 -102 0
-101 -102 0
100 101 102 0
-103 -104 0
-103 -105 0
-104 -105 0
103 104 105 0
-106 -107 0
-106 -108 0
-107 -108 0
106 107 108 0
-109 -110 0
-109 -111 0
-110 -111 0
109 110 111 0
-112 -113 0
-112 -114 0
-113 -114 0
112 113 114 0
-115 -116 0
-115 -117 0
-116 -117 0
115 116 117 0
-118 -119 0
-118 -120 0
-119 -120 0
118 119 120 0
-121 -122 0
-121 -123 0
-122 -123 0
121 122 123 0
-124 -125 0
-124 -126 0
-125 -126 0
124 125 126 0
-127 -128 0
-127 -129 0
-128 -129 0
127 128 129 0
-130 -131 0
-130 -132 0
-131 -132 0
130 131 132 0
-133 -134 0
-133 -135 0
-134 -135 0
133 134 135 0
-136 -137 0
-136 -138 0
-137 -138 0
136 137 138 0
-139 -140 0
-139 -141 0
-140 -141 0
139 140 141 0
-142 -143 0
-142 -144 0
-143 -144 0
142 143 144 0
-145 -146 0
-145 -147 0
-146 -147 0
145 146 147 0
-148 -149 0
-148 -150 0
-149 -150 0
148 149 150 0
-151 -152 0
-151 -153 0
-152 -153 0
151 152 153 0
-154 -155 0
-154 -156 0
-155 -156 0
154 155 156 0
-157 -158 0
-157 -159 0
-158 -159 0
157 158 159 0
-160 -161 0
-160 -162 0
-161 -162 0
160 161 162 0
-163 -164 0
-163 -165 0
-164 -165 0
163 164 165 0
-166 -167 0
-166 -168 0
-167 -168 0
166 167 168 0
-169 -170 0
-169 -171 0
-170 -171 0
169 170 171 0
-172 -173 0
-172 -174 0
-173 -174 0
172 173 174 0
-175 -176 0
-175 -177 0
-176 -177 0
175 176 177 0
-178 -179 0
-178 -180 0
-179 -180 0
178 179 180 0
-181 -182 0
-181 -183 0
-182 -183 0
181 182 183 0
-184 -185 0
-184 -186 0
-185 -186 0
184 185 186 0
-187 -188 0
-187 -189 0
-188 -189 0
187 188 189 0
-190 -191 0
-190 -192 0
-191 -192 0
190 191 192 0
-193 -194 0
-193 -195 0
-194 -195 0
193 194 195 0
-196 -197 0
-196 -198 0
-197 -198 0
196 197 198 0
-199 -200 0
-199 -201 0
-200 -201 0
199 200 201 0
-202 -203 0
-202 -204 0
-203 -204 0
202 203 204 0
-205 -206 0
-205 -207 0
-206 -207 0
205 206 207 0
-208 -209 0
-208 -210 0
-209 -210 0
208 209 210 0
-211 -212 0
-211 -213 0
-212 -213 0
211 212 213 0
-214 -215 0
-214 -216 0
-215 -216 0
214 215 216 0
-217 -218 0
-217 -219 0
-218 -219 0
217 218 219 0
-220 -221 0
-220 -222 0
-221 -222 0
220 221 222 0
-223 -224 0
-223 -225 0
-224 -225 0
223 224 225 0
-226 -227 0
-226 -228 0
-227 -228 0
226 227 228 0
-229 -230 0
-229 -231 0
-230 -231 0
229 230 231 0
-232 -233 0
-232 -234 0
-233 -234 0
232 233 234 0
-235 -236 0
-235 -237 0
-236 -237 0
235 236 237 0
-238 -239 0
-238 -240 0
-239 -240 0
238 239 240 0
-241 -242 0
-241 -243 0
-242 -243 0
241 242 243 0
-244 -245 0
-244 -246 0
-245 -246 0
244 245 246 0
-247 -248 0
-247 -249 0
-248 -249 0
247 248 249 0
-250 -251 0
-250 -252 0
-251 -252 0
250 251 252 0
-253 -254 0
-253 -255 0
-254 -255 0
253 254 255 0
-256 -257 0
-256 -258 0
-257 -258 0
256 257 258 0
-259 -260 0
-259 -261 0
-260 -261 0
259 260 261 0
-262 -263 0
-262 -264 0
-263 -264 0
262 263 264 0
-265 -266 0
-265 -267 0
-266 -267 0
265 266 267 0
-268 -269 0
-268 -270 0
-269 -270 0
268 269 270 0
-271 -272 0
-271 -273 0
-272 -273 0
271 272 273 0
-274 -275 0
-274 -276 0
-275 -276 0
274 275 276 0
-277 -278 0
-277 -279 0
-278 -279 0
277 278 279 0
-280 -281 0
-280 -282 0
-281 -282 0
280 281 282 0
-283 -284 0
-283 -285 0
-284 -285 0
283 284 285 0
-286 -287 0
-286 -288 0
-287 -288 0
286 287 288 0
-289 -290 0
-289 -291 0
-290 -291 0
289 290 291 0
-292 -293 0
-292 -294 0
-293 -294 0
292 293 294 0
-295 -296 0
-295 -297 0
-296 -297 0
295 296 297 0
-298 -299 0
-298 -300 0
-299 -300 0
298 299 300 0
-301 -302 0
-301 -303 0
-302 -303 0
301 302 303 0
-304 -305 0
-304 -306 0
-305 -306 0
304 305 306 0
-307 -308 0
-307 -309 0
-308 -309 0
307 308 309 0
-310 -311 0
-310 -312 0
-311 -312 0
310 311 312 0
-313 -314 0
-313 -315 0
-314 -315 0
313 314 315 0
-316 -317 0
-316 -318 0
-317 -318 0
316 317 318 0
-319 -320 0
-319 -321 0
-320 -321 0
319 320 321 0
-322 -323 0
-322 -324 0
-323 -324 0
322 323 324 0
-325 -326 0
-325 -327 0
-326 -327 0
325 326 327 0
-328 -329 0
-328 -330 0
-329 -330 0
328 329 330 0
-331 -332 0
-331 -333 0
-332 -333 0
331 332 333 0
-334 -335 0
-334 -336 0
-335 -336 0
334 335 336 0
-337 -338 0
-337 -339 0
-338 -339 0
337 338 339 0
-340 -341 0
-340 -342 0
-341 -342 0
340 341 342 0
-343 -344 0
-343 -345 0
-344 -345 0
343 344 345 0
-346 -347 0
-346 -348 0
-347 -348 0
346 347 348 0
-349 -350 0
-349 -351 0
-350 -351 0
349 350 351 0
-352 -353 0
-352 -354 0
-353 -354 0
352 353 354 0
-355 -356 0
-355 -357 0
-356 -357 0
355 356 357 0
-358 -359 0
-358 -360 0
-359 -360 0
358 359 360 0
-361 -362 0
-361 -363 0
-362 -363 0
361 362 363 0
-364 -365 0
-364 -366 0
-365 -366 0
364 365 366 0
-367 -368 0
-367 -369 0
-368 -369 0
367 368 369 0
-370 -371 0
-370 -372 0
-371 -372 0
370 371 372 0
-373 -374 0
-373 -375 0
-374 -375 0
373 374 375 0
-376 -377 0
-376 -378 0
-377 -378 0
376 377 378 0
-379 -380 0
-379 -381 0
-380 -381 0
379 380 381 0
-382 -383 0
-382 -384 0
-383 -384 0
382 383 384 0
-385 -386 0
-385 -387 0
-386 -387 0
385 386 387 0
-388 -389 0
-388 -390 0
-389 -390 0
388 389 390 0
-391 -392 0
-391 -393 0
-392 -393 0
391 392 393 0
-394 -395 0
-394 -396 0
-395 -396 0
394 395 396 0
-397 -398 0
-397 -399 0
-398 -399 0
397 398 399 0
-400 -401 0
-400 -402 0
-401 -402 0
400 401 402 0
-403 -404 0
-403 -405 0
-404 -405 0
403 404 405 0
-406 -407 0
-406 -408 0
-407 -408 0
406 407 408 0
-409 -410 0
-409 -411 0
-410 -411 0
409 410 411 0
-412 -413 0
-412 -414 0
-413 -414 0
412 413 414 0
-415 -416 0
-415 -417 0
-416 -417 0
415 416 417 0
-418 -419 0
-418 -420 0
-419 -420 0
418 419 420 0
-421 -422 0
-421 -423 0
-422 -423 0
421 422 423 0
-424 -425 0
-424 -426 0
-425 -426 0
424 425 426 0
-427 -428 0
-427 -429 0
-428 -429 0
427 428 429 0
-430 -431 0
-430 -432 0
-431 -432 0
430 431 432 0
-433 -434 0
-433 -435 0
-434 -435 0
433 434 435 0
-436 -437 0
-436 -438 0
-437 -438 0
436 437 438 0
-439 -440 0
-439 -441 0
-440 -441 0
439 440 441 0
-442 -443 0
-442 -444 0
-443 -444 0
442 443 444 0
-445 -446 0
-445 -447 0
-446 -447 0
445 446 447 0
-448 -449 0
-448 -450 0
-449 -450 0
448 449 450 0
-193 -1 0
-194 -2 0
-195 -3 0
-274 -1 0
-275 -2 0
-276 -3 0
-307 -1 0
-308 -2 0
-309 -3 0
-328 -1 0
-329 -2 0
-330 -3 0
-382 -1 0
-383 -2 0
-384 -3 0
-385 -1 0
-386 -2 0
-387 -3 0
-394 -1 0
-395 -2 0
-396 -3 0
-442 -1 0
-443 -2 0
-444 -3 0
-31 -4 0
-32 -5 0
-33 -6 0
-64 -4 0
-65 -5 0
-66 -6 0
-100 -4 0
-101 -5 0
-102 -6 0
-139 -4 0
-140 -5 0
-141 -6 0
-226 -4 0
-227 -5 0
-228 -6 0
-304 -4 0
-305 -5 0
-306 -6 0
-385 -4 0
-386 -5 0
-387 -6 0
-397 -4 0
-398 -5 0
-399 -6 0
-31 -7 0
-32 -8 0
-33 -9 0
-292 -7 0
-293 -8 0
-294 -9 0
-298 -7 0
-299 -8 0
-300 -9 0
-361 -7 0
-362 -8 0
-363 -9 0
-370 -7 0
-371 -8 0
-372 -9 0
-388 -7 0
-389 -8 0
-390 -9 0
-13 -10 0
-14 -11 0
-15 -12 0
-28 -10 0
-29 -11 0
-30 -12 0
-85 -10 0
-86 -11 0
-87 -12 0
-142 -10 0
-143 -11 0
-144 -12 0
-154 -10 0
-155 -11 0
-156 -12 0
-325 -10 0
-326 -11 0
-327 -12 0
-352 -10 0
-353 -11 0
-354 -12 0
-40 -13 0
-41 -14 0
-42 -15 0
-70 -13 0
-71 -14 0
-72 -15 0
-217 -13 0
-218 -14 0
-219 -15 0
-223 -13 0
-224 -14 0
-225 -15 0
-76 -16 0
-77 -17 0
-78 -18 0
-184 -16 0
-185 -17 0
-186 -18 0
-223 -16 0
-224 -17 0
-225 -18 0
-250 -16 0
-251 -17 0
-252 -18 0
-157 -19 0
-158 -20 0
-159 -21 0
-382 -19 0
-383 -20 0
-384 -21 0
-217 -22 0
-218 -23 0
-219 -24 0
-304 -22 0
-305 -23 0
-306 -24 0
-313 -22 0
-314 -23 0
-315 -24 0
-400 -22 0
-401 -23 0
-402 -24 0
-148 -25 0
-149 -26 0
-150 -27 0
-232 -25 0
-233 -26 0
-234 -27 0
-430 -25 0
-431 -26 0
-432 -27 0
-61 -28 0
-62 -29 0
-63 -30 0
-67 -28 0
-68 -29 0
-69 -30 0
-208 -28 0
-209 -29 0
-210 -30 0
-289 -28 0
-290 -29 0
-291 -30 0
-400 -28 0
-401 -29 0
-402 -30 0
-121 -31 0
-122 -32 0
-123 -33 0
-358 -34 0
-359 -35 0
-360 -36 0
-364 -34 0
-365 -35 0
-366 -36 0
-433 -34 0
-434 -35 0
-435 -36 0
-52 -37 0
-53 -38 0
-54 -39 0
-106 -37 0
-107 -38 0
-108 -39 0
-163 -37 0
-164 -38 0
-165 -39 0
-304 -37 0
-305 -38 0
-306 -39 0
-331 -37 0
-332 -38 0
-333 -39 0
-376 -37 0
-377 -38 0
-378 -39 0
-265 -40 0
-266 -41 0
-267 -42 0
-364 -40 0
-365 -41 0
-366 -42 0
-91 -43 0
-92 -44 0
-93 -45 0
-145 -43 0
-146 -44 0
-147 -45 0
-349 -43 0
-350 -44 0
-351 -45 0
-388 -43 0
-389 -44 0
-390 -45 0
-412 -43 0
-413 -44 0
-414 -45 0
-151 -46 0
-152 -47 0
-153 -48 0
-319 -46 0
-320 -47 0
-321 -48 0
-340 -46 0
-341 -47 0
-342 -48 0
-379 -46 0
-380 -47 0
-381 -48 0
-409 -46 0
-410 -47 0
-411 -48 0
-172 -49 0
-173 -50 0
-174 -51 0
-358 -49 0
-359 -50 0
-360 -51 0
-61 -52 0
-62 -53 0
-63 -54 0
-136 -52 0
-137 -53 0
-138 -54 0
-163 -52 0
-164 -53 0
-165 -54 0
-334 -52 0
-335 -53 0
-336 -54 0
-379 -52 0
-380 -53 0
-381 -54 0
-166 -55 0
-167 -56 0
-168 -57 0
-190 -55 0
-191 -56 0
-192 -57 0
-328 -55 0
-329 -56 0
-330 -57 0
-349 -55 0
-350 -56 0
-351 -57 0
-85 -58 0
-86 -59 0
-87 -60 0
-181 -58 0
-182 -59 0
-183 -60 0
-283 -58 0
-284 -59 0
-285 -60 0
-379 -58 0
-380 -59 0
-381 -60 0
-226 -61 0
-227 -62 0
-228 -63 0
-334 -61 0
-335 -62 0
-336 -63 0
-229 -64 0
-230 -65 0
-231 -66 0
-319 -64 0
-320 -65 0
-321 -66 0
-424 -64 0
-425 -65 0
-426 -66 0
-175 -67 0
-176 -68 0
-177 -69 0
-340 -67 0
-341 -68 0
-342 -69 0
-154 -70 0
-155 -71 0
-156 -72 0
-154 -73 0
-155 -74 0
-156 -75 0
-184 -73 0
-185 -74 0
-186 -75 0
-259 -73 0
-260 -74 0
-261 -75 0
-280 -73 0
-281 -74 0
-282 -75 0
-295 -73 0
-296 -74 0
-297 -75 0
-310 -73 0
-311 -74 0
-312 -75 0
-412 -73 0
-413 -74 0
-414 -75 0
-439 -73 0
-440 -74 0
-441 -75 0
-88 -76 0
-89 -77 0
-90 -78 0
-157 -76 0
-158 -77 0
-159 -78 0
-169 -76 0
-170 -77 0
-171 -78 0
-298 -76 0
-299 -77 0
-300 -78 0
-370 -76 0
-371 -77 0
-372 -78 0
-376 -76 0
-377 -77 0
-378 -78 0
-145 -79 0
-146 -80 0
-147 -81 0
-160 -79 0
-161 -80 0
-162 -81 0
-166 -79 0
-167 -80 0
-168 -81 0
-172 -79 0
-173 -80 0
-174 -81 0
-220 -79 0
-221 -80 0
-222 -81 0
-283 -79 0
-284 -80 0
-285 -81 0
-112 -82 0
-113 -83 0
-114 -84 0
-328 -82 0
-329 -83 0
-330 -84 0
-367 -82 0
-368 -83 0
-369 -84 0
-403 -82 0
-404 -83 0
-405 -84 0
-88 -85 0
-89 -86 0
-90 -87 0
-148 -85 0
-149 -86 0
-150 -87 0
-406 -85 0
-407 -86 0
-408 -87 0
-118 -88 0
-119 -89 0
-120 -90 0
-187 -88 0
-188 -89 0
-189 -90 0
-97 -91 0
-98 -92 0
-99 -93 0
-133 -91 0
-134 -92 0
-135 -93 0
-193 -91 0
-194 -92 0
-195 -93 0
-271 -91 0
-272 -92 0
-273 -93 0
-292 -91 0
-293 -92 0
-294 -93 0
-412 -91 0
-413 -92 0
-414 -93 0
-166 -94 0
-167 -95 0
-168 -96 0
-205 -94 0
-206 -95 0
-207 -96 0
-214 -94 0
-215 -95 0
-216 -96 0
-235 -94 0
-236 -95 0
-237 -96 0
-241 -94 0
-242 -95 0
-243 -96 0
-304 -94 0
-305 -95 0
-306 -96 0
-424 -94 0
-425 -95 0
-426 -96 0
-103 -97 0
-104 -98 0
-105 -99 0
-166 -97 0
-167 -98 0
-168 -99 0
-196 -97 0
-197 -98 0
-198 -99 0
-253 -97 0
-254 -98 0
-255 -99 0
-319 -97 0
-320 -98 0
-321 -99 0
-355 -97 0
-356 -98 0
-357 -99 0
-121 -100 0
-122 -101 0
-123 -102 0
-223 -100 0
-224 -101 0
-225 -102 0
-265 -100 0
-266 -101 0
-267 -102 0
-268 -100 0
-269 -101 0
-270 -102 0
-322 -100 0
-323 -101 0
-324 -102 0
-436 -100 0
-437 -101 0
-438 -102 0
-229 -103 0
-230 -104 0
-231 -105 0
-337 -103 0
-338 -104 0
-339 -105 0
-109 -106 0
-110 -107 0
-111 -108 0
-112 -106 0
-113 -107 0
-114 -108 0
-133 -106 0
-134 -107 0
-135 -108 0
-178 -106 0
-179 -107 0
-180 -108 0
-232 -106 0
-233 -107 0
-234 -108 0
-445 -106 0
-446 -107 0
-447 -108 0
-124 -109 0
-125 -110 0
-126 -111 0
-238 -109 0
-239 -110 0
-240 -111 0
-325 -109 0
-326 -110 0
-327 -111 0
-370 -109 0
-371 -110 0
-372 -111 0
-397 -109 0
-398 -110 0
-399 -111 0
-181 -112 0
-182 -113 0
-183 -114 0
-373 -112 0
-374 -113 0
-375 -114 0
-391 -112 0
-392 -113 0
-393 -114 0
-415 -112 0
-416 -113 0
-417 -114 0
-244 -115 0
-245 -116 0
-246 -117 0
-289 -115 0
-290 -116 0
-291 -117 0
-253 -118 0
-254 -119 0
-255 -120 0
-295 -118 0
-296 -119 0
-297 -120 0
-355 -118 0
-356 -119 0
-357 -120 0
-445 -118 0
-446 -119 0
-447 -120 0
-346 -121 0
-347 -122 0
-348 -123 0
-406 -121 0
-407 -122 0
-408 -123 0
-154 -124 0
-155 -125 0
-156 -126 0
-196 -124 0
-197 -125 0
-198 -126 0
-205 -124 0
-206 -125 0
-207 -126 0
-313 -124 0
-314 -125 0
-315 -126 0
-418 -124 0
-419 -125 0
-420 -126 0
-157 -127 0
-158 -128 0
-159 -129 0
-202 -127 0
-203 -128 0
-204 -129 0
-373 -127 0
-374 -128 0
-375 -129 0
-412 -127 0
-413 -128 0
-414 -129 0
-190 -130 0
-191 -131 0
-192 -132 0
-274 -130 0
-275 -131 0
-276 -132 0
-346 -130 0
-347 -131 0
-348 -132 0
-367 -130 0
-368 -131 0
-369 -132 0
-373 -130 0
-374 -131 0
-375 -132 0
-412 -130 0
-413 -131 0
-414 -132 0
-184 -133 0
-185 -134 0
-186 -135 0
-235 -133 0
-236 -134 0
-237 -135 0
-364 -133 0
-365 -134 0
-366 -135 0
-148 -136 0
-149 -137 0
-150 -138 0
-289 -136 0
-290 -137 0
-291 -138 0
-208 -139 0
-209 -140 0
-210 -141 0
-214 -139 0
-215 -140 0
-216 -141 0
-328 -139 0
-329 -140 0
-330 -141 0
-391 -139 0
-392 -140 0
-393 -141 0
-421 -139 0
-422 -140 0
-423 -141 0
-169 -142 0
-170 -143 0
-171 -144 0
-244 -142 0
-245 -143 0
-246 -144 0
-376 -142 0
-377 -143 0
-378 -144 0
-160 -145 0
-161 -146 0
-162 -147 0
-445 -145 0
-446 -146 0
-447 -147 0
-448 -145 0
-449 -146 0
-450 -147 0
-346 -148 0
-347 -149 0
-348 -150 0
-394 -148 0
-395 -149 0
-396 -150 0
-226 -151 0
-227 -152 0
-228 -153 0
-361 -151 0
-362 -152 0
-363 -153 0
-382 -151 0
-383 -152 0
-384 -153 0
-163 -154 0
-164 -155 0
-165 -156 0
-244 -154 0
-245 -155 0
-246 -156 0
-430 -154 0
-431 -155 0
-432 -156 0
-202 -157 0
-203 -158 0
-204 -159 0
-409 -157 0
-410 -158 0
-411 -159 0
-187 -160 0
-188 -161 0
-189 -162 0
-397 -160 0
-398 -161 0
-399 -162 0
-427 -160 0
-428 -161 0
-429 -162 0
-166 -163 0
-167 -164 0
-168 -165 0
-235 -163 0
-236 -164 0
-237 -165 0
-406 -163 0
-407 -164 0
-408 -165 0
-253 -166 0
-254 -167 0
-255 -168 0
-310 -166 0
-311 -167 0
-312 -168 0
-373 -166 0
-374 -167 0
-375 -168 0
-196 -169 0
-197 -170 0
-198 -171 0
-205 -169 0
-206 -170 0
-207 -171 0
-229 -169 0
-230 -170 0
-231 -171 0
-313 -172 0
-314 -173 0
-315 -174 0
-385 -172 0
-386 -173 0
-387 -174 0
-406 -175 0
-407 -176 0
-408 -177 0
-241 -178 0
-242 -179 0
-243 -180 0
-397 -178 0
-398 -179 0
-399 -180 0
-433 -178 0
-434 -179 0
-435 -180 0
-202 -181 0
-203 -182 0
-204 -183 0
-298 -181 0
-299 -182 0
-300 -183 0
-244 -184 0
-245 -185 0
-246 -186 0
-193 -187 0
-194 -188 0
-195 -189 0
-268 -187 0
-269 -188 0
-270 -189 0
-397 -187 0
-398 -188 0
-399 -189 0
-403 -187 0
-404 -188 0
-405 -189 0
-415 -187 0
-416 -188 0
-417 -189 0
-445 -190 0
-446 -191 0
-447 -192 0
-229 -193 0
-230 -194 0
-231 -195 0
-244 -193 0
-245 -194 0
-246 -195 0
-442 -193 0
-443 -194 0
-444 -195 0
-352 -196 0
-353 -197 0
-354 -198 0
-364 -196 0
-365 -197 0
-366 -198 0
-265 -199 0
-266 -200 0
-267 -201 0
-325 -199 0
-326 -200 0
-327 -201 0
-403 -199 0
-404 -200 0
-405 -201 0
-433 -199 0
-434 -200 0
-435 -201 0
-262 -202 0
-263 -203 0
-264 -204 0
-424 -202 0
-425 -203 0
-426 -204 0
-448 -202 0
-449 -203 0
-450 -204 0
-217 -211 0
-218 -212 0
-219 -213 0
-244 -211 0
-245 -212 0
-246 -213 0
-274 -211 0
-275 -212 0
-276 -213 0
-340 -211 0
-341 -212 0
-342 -213 0
-427 -211 0
-428 -212 0
-429 -213 0
-298 -214 0
-299 -215 0
-300 -216 0
-433 -214 0
-434 -215 0
-435 -216 0
-277 -217 0
-278 -218 0
-279 -219 0
-313 -217 0
-314 -218 0
-315 -219 0
-385 -217 0
-386 -218 0
-387 -219 0
-322 -220 0
-323 -221 0
-324 -222 0
-301 -223 0
-302 -224 0
-303 -225 0
-313 -223 0
-314 -224 0
-315 -225 0
-334 -226 0
-335 -227 0
-336 -228 0
-340 -226 0
-341 -227 0
-342 -228 0
-343 -226 0
-344 -227 0
-345 -228 0
-280 -229 0
-281 -230 0
-282 -231 0
-379 -229 0
-380 -230 0
-381 -231 0
-292 -232 0
-293 -233 0
-294 -234 0
-382 -232 0
-383 -233 0
-384 -234 0
-433 -232 0
-434 -233 0
-435 -234 0
-298 -235 0
-299 -236 0
-300 -237 0
-328 -235 0
-329 -236 0
-330 -237 0
-430 -235 0
-431 -236 0
-432 -237 0
-331 -238 0
-332 -239 0
-333 -240 0
-361 -241 0
-362 -242 0
-363 -243 0
-421 -241 0
-422 -242 0
-423 -243 0
-286 -244 0
-287 -245 0
-288 -246 0
-340 -244 0
-341 -245 0
-342 -246 0
-295 -247 0
-296 -248 0
-297 -249 0
-391 -247 0
-392 -248 0
-393 -249 0
-268 -250 0
-269 -251 0
-270 -252 0
-334 -250 0
-335 -251 0
-336 -252 0
-370 -250 0
-371 -251 0
-372 -252 0
-262 -253 0
-263 -254 0
-264 -255 0
-346 -253 0
-347 -254 0
-348 -255 0
-436 -253 0
-437 -254 0
-438 -255 0
-343 -256 0
-344 -257 0
-345 -258 0
-358 -256 0
-359 -257 0
-360 -258 0
-283 -259 0
-284 -260 0
-285 -261 0
-307 -265 0
-308 -266 0
-309 -267 0
-379 -265 0
-380 -266 0
-381 -267 0
-352 -268 0
-353 -269 0
-354 -270 0
-310 -277 0
-311 -278 0
-312 -279 0
-325 -277 0
-326 -278 0
-327 -279 0
-331 -283 0
-332 -284 0
-333 -285 0
-370 -283 0
-371 -284 0
-372 -285 0
-310 -286 0
-311 -287 0
-312 -288 0
-349 -286 0
-350 -287 0
-351 -288 0
-373 -286 0
-374 -287 0
-375 -288 0
-340 -289 0
-341 -290 0
-342 -291 0
-439 -292 0
-440 -293 0
-441 -294 0
-304 -295 0
-305 -296 0
-306 -297 0
-418 -295 0
-419 -296 0
-420 -297 0
-436 -295 0
-437 -296 0
-438 -297 0
-445 -295 0
-446 -296 0
-447 -297 0
-307 -298 0
-308 -299 0
-309 -300 0
-388 -298 0
-389 -299 0
-390 -300 0
-337 -307 0
-338 -308 0
-339 -309 0
-367 -307 0
-368 -308 0
-369 -309 0
-385 -307 0
-386 -308 0
-387 -309 0
-343 -310 0
-344 -311 0
-345 -312 0
-352 -310 0
-353 -311 0
-354 -312 0
-361 -316 0
-362 -317 0
-363 -318 0
-394 -316 0
-395 -317 0
-396 -318 0
-445 -316 0
-446 -317 0
-447 -318 0
-448 -316 0
-449 -317 0
-450 -318 0
-373 -319 0
-374 -320 0
-375 -321 0
-439 -322 0
-440 -323 0
-441 -324 0
-364 -325 0
-365 -326 0
-366 -327 0
-412 -325 0
-413 -326 0
-414 -327 0
-376 -334 0
-377 -335 0
-378 -336 0
-436 -334 0
-437 -335 0
-438 -336 0
-376 -337 0
-377 -338 0
-378 -339 0
-379 -337 0
-380 -338 0
-381 -339 0
-442 -337 0
-443 -338 0
-444 -339 0
-349 -340 0
-350 -341 0
-351 -342 0
-352 -346 0
-353 -347 0
-354 -348 0
-391 -346 0
-392 -347 0
-393 -348 0
-430 -346 0
-431 -347 0
-432 -348 0
-352 -349 0
-353 -350 0
-354 -351 0
-418 -349 0
-419 -350 0
-420 -351 0
-355 -352 0
-356 -353 0
-357 -354 0
-394 -352 0
-395 -353 0
-396 -354 0
-376 -355 0
-377 -356 0
-378 -357 0
-391 -355 0
-392 -356 0
-393 -357 0
-436 -355 0
-437 -356 0
-438 -357 0
-379 -361 0
-380 -362 0
-381 -363 0
-394 -361 0
-395 -362 0
-396 -363 0
-409 -361 0
-410 -362 0
-411 -363 0
-439 -361 0
-440 -362 0
-441 -363 0
-406 -364 0
-407 -365 0
-408 -366 0
-415 -364 0
-416 -365 0
-417 -366 0
-430 -364 0
-431 -365 0
-432 -366 0
-388 -370 0
-389 -371 0
-390 -372 0
-412 -370 0
-413 -371 0
-414 -372 0
-430 -373 0
-431 -374 0
-432 -375 0
-448 -379 0
-449 -380 0
-450 -381 0
-415 -385 0
-416 -386 0
-417 -387 0
-418 -400 0
-419 -401 0
-420 -402 0
-418 -403 0
-419 -404 0
-420 -405 0
-430 -409 0
-431 -410 0
-432 -411 0
-445 -409 0
-446 -410 0
-447 -411 0
-448 -430 0
-449 -431 0
-450 -432 0
-442 -433 0
-443 -434 0
-444 -435 0
